<instance format="XCSP3" type="CSP">
  <variables>
    <var id="x0"> 0 3 5 12 </var>
    <var id="x1"> 2 5 6 12 17 </var>
    <var id="x2"> 6 8 12 17 </var>
    <var id="x3"> 2 5 6 8 12 17 </var>
    <var id="x4"> 8 17 </var>
    <var id="x5"> 3 </var>
    <var id="x6"> 5 </var>
    <var id="x7"> 0 2 3 6 12 </var>
    <var id="x8"> 13 16 </var>
    <var id="x9"> 2 4 15..17 </var>
    <var id="x10"> 2 4 10 13 15 16 </var>
    <var id="x11"> 4 6 10 </var>
    <var id="x12"> 13 15..17 </var>
    <var id="x13"> 10 13 15..17 </var>
    <var id="x14"> 6 10 15..17 </var>
    <var id="x15"> 13 15 16 </var>
    <var id="x16"> 12 13 </var>
    <var id="x17"> 2 10 13 15 </var>
    <var id="x18"> 2 6 12 15 </var>
    <var id="x19"> 6 8 12 </var>
    <var id="x20"> 2 6 8 12 13 </var>
    <var id="x21"> 7 8 13 15 </var>
    <var id="x22"> 6 10 15 </var>
    <var id="x23"> 2 10 12 13 15 </var>
    <var id="x24"> 0 3 11 16 </var>
    <var id="x25"> 3 4 11 15 16 </var>
    <var id="x26"> 0 3 4 6 </var>
    <var id="x27"> 6 15..17 </var>
    <var id="x28"> 11 15..17 </var>
    <var id="x29"> 0 15..17 </var>
    <var id="x30"> 0 3 6 15..17 </var>
    <var id="x31"> 4 16 </var>
    <var id="x32"> 0 11 13 16 </var>
    <var id="x33"> 0 9 11 16 17 </var>
    <var id="x34"> 6 9 16 17 </var>
    <var id="x35"> 0 6 16 17 </var>
    <var id="x36"> 0 11 13 17 </var>
    <var id="x37"> 9 11 13 16 </var>
    <var id="x38"> 0 6 13 </var>
    <var id="x39"> 2 3 6 13 </var>
    <var id="x40"> 2 6 12 </var>
    <var id="x41"> 2 6 12 13 </var>
    <var id="x42"> 13 15 16 </var>
    <var id="x43"> 1 3 6 15 16 </var>
    <var id="x44"> 2 12 13 15 </var>
    <var id="x45"> 1 3 13 15 16 </var>
    <var id="x46"> 2 3 6 12 13 </var>
    <var id="x47"> 7 9 10 12 15 17 </var>
    <var id="x48"> 10 13 15 16 </var>
    <var id="x49"> 7 10 16 17 </var>
    <var id="x50"> 9 10 12 </var>
    <var id="x51"> 9 12 17 </var>
    <var as="x13" id="x52"/>
    <var id="x53"> 10 15..17 </var>
    <var id="x54"> 7 9 10 13 16 </var>
    <var id="x55"> 0 3 11 </var>
    <var id="x56"> 0 2 11 15 17 </var>
    <var id="x57"> 0 2 3 14 17 </var>
    <var id="x58"> 10 11 15 17 </var>
    <var id="x59"> 2 14 17 </var>
    <var id="x60"> 0 3 10 15 17 </var>
    <var id="x61"> 0 2 10 11 15 17 </var>
    <var id="x62"> 0 2 3 10 14 </var>
    <var id="x63"> 5 11 13 </var>
    <var id="x64"> 9 11 </var>
    <var id="x65"> 6 8 13 14 </var>
    <var id="x66"> 7 9 11 </var>
    <var id="x67"> 5 6 14 </var>
    <var id="x68"> 6 8 9 </var>
    <var id="x69"> 7 8 11 13 </var>
    <var id="x70"> 6 13 14 </var>
    <var id="x71"> 0 2 3 17 </var>
    <var id="x72"> 4 11 17 </var>
    <var id="x73"> 0 2 5 17 </var>
    <var id="x74"> 5 17 </var>
    <var id="x75"> 0 1 3 17 </var>
    <var id="x76"> 0 2 11 17 </var>
    <var id="x77"> 1 3 11 </var>
    <var id="x78"> 0 2 3 </var>
    <var id="x79"> 0 9 15 16 </var>
    <var id="x80"> 0 6 14 </var>
    <var id="x81"> 9 10 15 </var>
    <var id="x82"> 0 6 14 </var>
    <var id="x83"> 6 10 16 </var>
    <var id="x84"> 6 9 15 16 </var>
    <var id="x85"> 0 10 15 </var>
    <var id="x86"> 1 9 10 16 </var>
    <var id="x87"> 3 8 17 </var>
    <var id="x88"> 9 11 17 </var>
    <var id="x89"> 8 16 17 </var>
    <var id="x90"> 1 8 9 17 </var>
    <var id="x91"> 8 17 </var>
    <var id="x92"> 1 8 11 16 17 </var>
    <var id="x93"> 1 9 16 </var>
    <var id="x94"> 9 11 12 17 </var>
    <var id="x95"> 2 11 13 </var>
    <var id="x96"> 2 12 17 </var>
    <var id="x97"> 1 9 12 17 </var>
    <var id="x98"> 1 11 13 17 </var>
    <var id="x99"> 13 17 </var>
    <var id="x100"> 2 12 13 </var>
    <var id="x101"> 0 14 17 </var>
    <var id="x102"> 10 15 </var>
    <var id="x103"> 5 7 10 17 </var>
    <var id="x104"> 0 10 12 </var>
    <var id="x105"> 5 12 15 17 </var>
    <var id="x106"> 5 12 14 17 </var>
    <var id="x107"> 0 10 14 15 17 </var>
    <var id="x108"> 5 7 10 </var>
    <var id="x109"> 0 1 3 5 12 </var>
    <var id="x110"> 0 3 8 </var>
    <var id="x111"> 3 10 </var>
    <var id="x112"> 0 5 12 </var>
    <var id="x113"> 0 3 8..10 12 </var>
    <var id="x114"> 5 9 12 </var>
    <var id="x115"> 1 8 9 12 </var>
    <var id="x116"> 0 8 10 </var>
    <var as="x9" id="x117"/>
    <var id="x118"> 2 4 13 15 16 </var>
    <var id="x119"> 8 16 17 </var>
    <var id="x120"> 4 8 12 </var>
    <var id="x121"> 2 8 12 13 17 </var>
    <var id="x122"> 8 13 15..17 </var>
    <var id="x123"> 2 12 13 15 17 </var>
    <var id="x124"> 13 15 16 </var>
    <var id="x125"> 0 4 16 </var>
    <var id="x126"> 0 5 14 </var>
    <var id="x127"> 5 16 </var>
    <var id="x128"> 4 8 14 </var>
    <var id="x129"> 8 13 16 </var>
    <var id="x130"> 0 10 13 </var>
    <var id="x131"> 13 16 </var>
    <var id="x132"> 4 5 10 13 16 </var>
    <var id="x133"> 4 16 17 </var>
    <var id="x134"> 4 10 12 17 </var>
    <var id="x135"> 6 10 16 17 </var>
    <var id="x136"> 4 6 10 12 </var>
    <var id="x137"> 4 6 12 14 17 </var>
    <var id="x138"> 6 12..14 17 </var>
    <var id="x139"> 4 10 13 16 </var>
    <var id="x140"> 6 10 12..14 </var>
  </variables>
  <constraints>
    <group>
      <allDifferent> %... </allDifferent>
      <args> x0 x1 x2 x3 x4 x5 x6 x7 </args>
      <args> x8 x9 x10 x11 x12 x13 x14 x15 </args>
      <args> x16 x17 x18 x19 x20 x21 x22 x23 </args>
      <args> x24 x25 x26 x27 x28 x29 x30 x31 </args>
      <args> x32 x33 x34 x35 x36 x37 x38 </args>
      <args> x39 x40 x41 x42 x43 x44 x45 x46 </args>
      <args> x47 x48 x49 x50 x51 x52 x53 x54 </args>
      <args> x55 x56 x57 x58 x59 x60 x61 x62 </args>
      <args> x63 x64 x65 x66 x67 x68 x69 x70 </args>
      <args> x71 x72 x73 x74 x75 x76 x77 x78 </args>
      <args> x79 x80 x81 x82 x83 x84 x85 x86 </args>
      <args> x87 x88 x89 x90 x91 x92 x93 </args>
      <args> x94 x95 x96 x97 x98 x99 x100 </args>
      <args> x101 x102 x103 x104 x105 x106 x107 x108 </args>
      <args> x109 x110 x111 x112 x113 x114 x115 x116 </args>
      <args> x117 x118 x119 x120 x121 x122 x123 x124 </args>
      <args> x125 x126 x127 x128 x129 x130 x131 x132 </args>
      <args> x133 x134 x135 x136 x137 x138 x139 x140 </args>
      <args> x0 x8 x16 x24 x32 x55 x63 x109 </args>
      <args> x9 x33 x56 x64 x79 x117 x125 x133 </args>
      <args> x39 x57 x65 x71 x80 x87 x101 x110 </args>
      <args> x47 x58 x66 x72 x81 x88 x94 x134 </args>
      <args> x10 x17 x25 x48 x95 x102 x111 x118 </args>
      <args> x40 x67 x73 x82 x96 x112 x126 </args>
      <args> x49 x74 x83 x89 x103 x119 x135 </args>
      <args> x11 x26 x50 x68 x104 x113 x120 x136 </args>
      <args> x1 x18 x27 x34 x84 x105 x114 x127 </args>
      <args> x2 x19 x51 x90 x97 x115 x128 x137 </args>
      <args> x3 x20 x41 x59 x91 x106 x121 x138 </args>
      <args> x4 x12 x21 x28 x69 x92 x98 x129 </args>
      <args> x13 x29 x42 x52 x99 x107 x116 x122 </args>
      <args> x14 x22 x30 x35 x43 x53 x60 x75 </args>
      <args> x23 x36 x44 x61 x76 x85 x123 x130 </args>
      <args> x5 x15 x37 x45 x77 x124 x131 </args>
      <args> x6 x31 x54 x86 x93 x108 x132 x139 </args>
      <args> x7 x38 x46 x62 x70 x78 x100 x140 </args>
    </group>
  </constraints>
</instance>

